p cnf 188 331
e 1 2 3 4 5 6 7 8 9 10 11 12 13 14 15 16 17 18 19 20 21 22 23 24 25 26 27 28 29 30 31 32 33 34 35 36 37 38 39 40 41 42 43 44 45 46 47 48 49 50 51 52 53 54 0
a 55 56 57 58 59 60 61 62 63 64 65 66 67 68 69 70 71 72 73 74 75 76 77 78 79 80 81 82 83 84 85 86 87 88 89 90 91 92 93 94 95 96 97 98 99 100 101 102 103 104 0
e 105 106 107 108 109 110 111 112 113 114 115 116 117 118 119 120 121 122 123 124 125 126 127 128 129 130 131 132 133 134 135 136 137 138 139 140 141 142 143 144 145 146 147 148 149 150 151 152 153 154 155 156 157 158 159 160 161 162 163 164 165 166 167 168 169 170 171 172 173 174 175 176 177 178 179 180 181 182 183 184 185 186 187 188 0
-188 -55 0
-188 -56 0
-188 -57 0
-187 56 0
-187 -58 0
-187 -57 0
-186 56 0
-186 58 0
-186 -57 0
-185 -55 0
-185 57 0
-185 -59 0
-184 -55 0
-184 57 0
-184 59 0
-183 55 0
-183 60 0
-183 -61 0
-182 55 0
-182 60 0
-182 61 0
-181 55 0
-181 -60 0
-181 62 0
-180 63 0
-180 -60 0
-180 -62 0
-179 -63 0
-179 55 0
-179 -64 0
-178 -63 0
-178 64 0
-178 65 0
-177 -63 0
-177 64 0
-177 61 0
-176 -61 0
-176 -65 0
-176 -66 0
-175 67 0
-175 -61 0
-175 66 0
-174 -67 0
-174 68 0
-174 66 0
-173 -67 0
-173 -68 0
-173 69 0
-172 -68 0
-172 -69 0
-172 -70 0
-171 71 0
-171 -69 0
-171 70 0
-170 -68 0
-170 -72 0
-170 70 0
-169 73 0
-169 -71 0
-169 72 0
-168 -73 0
-168 72 0
-168 74 0
-167 -73 0
-167 63 0
-167 74 0
-166 72 0
-166 75 0
-166 -74 0
-165 -68 0
-165 76 0
-165 -74 0
-164 68 0
-164 -75 0
-164 76 0
-163 -77 0
-163 -76 0
-163 -78 0
-162 77 0
-162 -75 0
-162 -78 0
-161 57 0
-161 -76 0
-161 78 0
-160 -79 0
-160 -76 0
-160 78 0
-159 79 0
-159 78 0
-159 -80 0
-158 -81 0
-158 -82 0
-158 80 0
-157 79 0
-157 -82 0
-157 80 0
-156 83 0
-156 79 0
-156 82 0
-155 -83 0
-155 -84 0
-155 82 0
-154 -83 0
-154 85 0
-154 84 0
-153 -71 0
-153 -85 0
-153 -86 0
-152 71 0
-152 -86 0
-152 84 0
-151 -85 0
-151 86 0
-151 87 0
-150 86 0
-150 -87 0
-150 -88 0
-149 89 0
-149 -87 0
-149 88 0
-148 -89 0
-148 90 0
-148 88 0
-147 -91 0
-147 -89 0
-147 -90 0
-146 -81 0
-146 91 0
-146 -90 0
-145 81 0
-145 -92 0
-145 91 0
-144 81 0
-144 92 0
-144 93 0
-143 94 0
-143 -62 0
-143 -93 0
-142 94 0
-142 92 0
-142 62 0
-141 -77 0
-141 92 0
-141 -93 0
-140 -95 0
-140 -94 0
-140 77 0
-139 95 0
-139 77 0
-139 -96 0
-138 95 0
-138 -58 0
-138 96 0
-137 58 0
-137 96 0
-137 -97 0
-136 56 0
-136 96 0
-136 97 0
-135 98 0
-135 96 0
-135 97 0
-134 99 0
-134 -98 0
-134 97 0
-133 -99 0
-133 -100 0
-133 -98 0
-132 100 0
-132 -56 0
-132 101 0
-131 100 0
-131 -102 0
-131 -101 0
-130 75 0
-130 -102 0
-130 -101 0
-129 73 0
-129 75 0
-129 -101 0
-128 100 0
-128 -103 0
-128 102 0
-127 -104 0
-127 103 0
-127 102 0
-126 -104 0
-126 103 0
-126 101 0
-125 -104 0
-125 103 0
-125 69 0
-124 104 0
-124 103 0
-124 -59 0
-123 -56 0
-123 -70 0
-122 -99 0
-122 98 0
-122 61 0
-121 85 0
-121 -91 0
-121 -65 0
-120 104 0
-120 89 0
-120 59 0
-119 99 0
-119 -95 0
-119 67 0
-118 -96 0
-118 -80 0
-118 -66 0
-117 -60 0
-117 -79 0
-116 -84 0
-116 -98 0
-116 93 0
-115 -72 0
-115 -96 0
-115 90 0
-114 -95 0
-114 -64 0
-114 89 0
-113 -103 0
-113 -92 0
-113 101 0
-112 -94 0
-112 -104 0
-112 65 0
-111 83 0
-111 -100 0
-111 -97 0
-110 73 0
-110 63 0
-110 -88 0
-109 63 0
-109 87 0
-109 -80 0
-108 1 0
-108 -57 0
-107 2 0
-107 -67 0
-106 3 0
-106 -70 0
-105 4 0
-105 -72 0
188 187 186 185 184 183 182 181 180 179 178 177 176 175 174 173 172 171 170 169 168 167 166 165 164 163 162 161 160 159 158 157 156 155 154 153 152 151 150 149 148 147 146 145 144 143 142 141 140 139 138 137 136 135 134 133 132 131 130 129 128 127 126 125 124 123 122 121 120 119 118 117 116 115 114 113 112 111 110 109 108 107 106 105 89 0
-4 22 0
-3 20 0
-2 17 0
-1 7 0
-13 -37 30 0
-23 -13 38 0
-33 50 47 0
44 54 -15 0
53 42 -51 0
45 14 -39 0
22 46 -40 0
34 48 -43 0
10 29 0
46 30 16 0
-49 45 -17 0
-54 -39 -9 0
-35 41 15 0
49 -48 -11 0
6 20 0
-54 -53 9 0
54 -53 -19 0
54 -53 -51 0
54 -53 -52 0
-50 53 -52 0
-23 -25 51 0
-25 52 51 0
-50 52 51 0
-50 6 -51 0
49 50 48 0
-49 48 -47 0
-48 -46 -47 0
-6 -46 -47 0
-8 -46 47 0
-45 8 -46 0
-45 -27 46 0
45 44 -27 0
27 -42 43 0
-44 -42 -12 0
-44 12 43 0
-31 -42 -43 0
-31 42 -41 0
31 -41 40 0
41 39 40 0
39 -40 -38 0
-39 37 -38 0
-36 37 38 0
35 -36 -37 0
-21 36 -34 0
21 35 36 0
33 -35 -34 0
33 34 -32 0
-33 -29 -32 0
-29 32 -30 0
31 32 -30 0
-29 -28 30 0
29 26 -28 0
-7 26 -28 0
-27 25 28 0
27 26 28 0
-18 25 -26 0
18 -26 24 0
-22 -25 24 0
23 -13 -24 0
23 -22 -24 0
-23 21 -22 0
18 22 -20 0
-21 19 -20 0
18 19 20 0
17 18 -19 0
17 -18 -16 0
-17 11 -16 0
11 15 16 0
13 -14 -11 0
13 -14 -15 0
13 -5 14 0
-13 10 12 0
-5 10 -12 0
-5 -10 -11 0
-5 -10 11 0
5 -7 -9 0
5 -7 9 0
-6 -8 7 0
-6 8 7 0
5 6 7 0
